p cnf 618 1647
a 1 2 3 4 5 6 7 8 13 14 15 16 17 18 19 20 21 22 23 24 25 26 27 28 29 30 31 32 33 34 35 36 37 38 39 40 41 42 43 44 45 46 47 48 49 50 51 52 53 54 55 56 57 58 59 60 61 62 63 64 65 66 0
e 9 10 11 12 67 68 69 70 71 72 73 74 75 76 77 78 79 80 81 82 83 84 85 86 87 88 89 90 91 92 93 94 95 96 97 98 99 100 101 102 103 104 105 106 107 108 109 110 111 112 113 114 115 116 117 118 119 120 121 122 123 124 125 126 127 128 129 130 131 132 133 134 135 136 137 138 139 140 141 142 143 144 145 146 147 148 149 150 151 152 153 154 155 156 157 158 159 160 161 162 163 164 165 166 167 168 169 170 171 172 173 174 175 176 177 178 179 180 181 182 183 184 185 186 187 188 189 190 191 192 193 194 195 196 197 198 199 200 201 202 203 204 205 206 207 208 209 210 211 212 213 214 215 216 217 218 219 220 221 222 223 224 225 226 227 228 229 230 231 232 233 234 235 236 237 238 239 240 241 242 243 244 245 246 247 248 249 250 251 252 253 254 255 256 257 258 259 260 261 262 263 264 265 266 267 268 269 270 271 272 273 274 275 276 277 278 279 280 281 282 283 284 285 286 287 288 289 290 291 292 293 294 295 296 297 298 299 300 301 302 303 304 305 306 307 308 309 310 311 312 313 314 315 316 317 318 319 320 321 322 323 324 325 326 327 328 329 330 331 332 333 334 335 336 337 338 339 340 341 342 343 344 345 346 347 348 349 350 351 352 353 354 355 356 357 358 359 360 361 362 363 364 365 366 367 368 369 370 371 372 373 374 375 376 377 378 379 380 381 382 383 384 385 386 387 388 389 390 391 392 393 394 395 396 397 398 399 400 401 402 403 404 405 406 407 408 409 410 411 412 413 414 415 416 417 418 419 420 421 422 423 424 425 426 427 428 429 430 431 432 433 434 435 436 437 438 439 440 441 442 443 444 445 446 447 448 449 450 451 452 453 454 455 456 457 458 459 460 461 462 463 464 465 466 467 468 469 470 471 472 473 474 475 476 477 478 479 480 481 482 483 484 485 486 487 488 489 490 491 492 493 494 495 496 497 498 499 500 501 502 503 504 505 506 507 508 509 510 511 512 513 514 515 516 517 518 519 520 521 522 523 524 525 526 527 528 529 530 531 532 533 534 535 536 537 538 539 540 541 542 543 544 545 546 547 548 549 550 551 552 553 554 555 556 557 558 559 560 561 562 563 564 565 566 567 568 569 570 571 572 573 574 575 576 577 578 579 580 581 582 583 584 585 586 587 588 589 590 591 592 593 594 595 596 597 598 599 600 601 602 603 604 605 606 607 608 609 610 611 612 613 614 615 616 617 618 0
-618 0
618 -374 0
618 -399 0
618 -448 0
618 -473 0
618 -482 0
618 -491 0
618 -512 0
618 -531 0
618 -548 0
618 -557 0
618 -566 0
618 -575 0
618 -584 0
618 -599 0
618 -608 0
618 -617 0
7 5 6 8 2 1 -373 -372 -616 617 0
616 -612 0
616 -615 0
-346 -345 -344 -343 -334 -614 -613 -219 615 0
614 -390 0
614 -366 0
613 -465 0
613 -395 0
-9 -10 -11 -12 -611 612 0
611 -609 0
611 -610 0
611 -181 0
611 -190 0
611 -191 0
611 -192 0
611 -193 0
-213 -378 610 0
-383 -453 609 0
7 5 4 6 2 1 -373 -372 -607 608 0
607 -603 0
607 -606 0
-431 -430 -429 -464 -463 -605 -604 -219 606 0
605 -437 0
605 -347 0
604 -469 0
604 -390 0
-9 -10 -11 -12 -602 603 0
602 -600 0
602 -601 0
602 -451 0
602 -452 0
602 -405 0
602 -406 0
602 -407 0
-194 -413 601 0
-378 -457 600 0
7 5 4 8 2 1 -373 -372 -598 599 0
598 -591 0
598 -597 0
-545 -528 -509 -596 -219 597 0
596 -595 0
596 -252 0
596 -253 0
596 -254 0
596 -255 0
-594 -593 -592 595 0
594 -320 0
594 -321 0
594 -246 0
594 -247 0
594 -57 0
594 -53 0
594 -43 0
594 -42 0
594 -41 0
594 -40 0
594 -37 0
593 -317 0
593 -241 0
593 -242 0
593 -318 0
593 -56 0
593 -50 0
593 -34 0
593 -33 0
593 -32 0
593 -31 0
593 -28 0
592 -323 0
592 -236 0
592 -237 0
592 -324 0
592 -55 0
592 -47 0
592 -25 0
592 -24 0
592 -23 0
592 -22 0
592 -19 0
-9 -10 -11 -12 -590 591 0
590 -589 0
590 -499 0
590 -519 0
590 -537 0
-102 -101 -100 -99 -588 589 0
588 -585 0
588 -586 0
588 -587 0
37 53 43 40 57 42 41 -94 -93 -168 -167 587 0
28 32 31 33 34 56 50 -165 -89 -88 -164 586 0
25 24 23 22 19 55 47 -171 -84 -83 -170 585 0
7 4 6 8 2 1 -373 -372 -583 584 0
583 -579 0
583 -582 0
-356 -355 -354 -389 -388 -581 -580 -219 582 0
581 -394 0
581 -347 0
580 -362 0
580 -465 0
-9 -10 -11 -12 -578 579 0
578 -576 0
578 -577 0
578 -376 0
578 -377 0
578 -201 0
578 -202 0
578 -203 0
-194 -382 577 0
-453 -209 576 0
7 5 6 8 3 1 -373 -372 -574 575 0
574 -570 0
574 -573 0
-337 -336 -335 -365 -363 -572 -571 -219 573 0
572 -442 0
572 -347 0
571 -469 0
571 -395 0
-9 -10 -11 -12 -569 570 0
569 -567 0
569 -568 0
569 -210 0
569 -212 0
569 -182 0
569 -183 0
569 -184 0
-194 -418 568 0
-383 -457 567 0
7 5 4 6 3 1 -373 -372 -565 566 0
565 -561 0
565 -564 0
-426 -425 -424 -468 -467 -563 -562 -219 564 0
563 -437 0
563 -366 0
562 -442 0
562 -465 0
-9 -10 -11 -12 -560 561 0
560 -558 0
560 -559 0
560 -455 0
560 -456 0
560 -400 0
560 -401 0
560 -402 0
-213 -413 559 0
-453 -418 558 0
7 5 4 8 3 1 -373 -372 -556 557 0
556 -552 0
556 -555 0
-305 -304 -299 -441 -439 -554 -553 -219 555 0
554 -461 0
554 -366 0
553 -315 0
553 -469 0
-9 -10 -11 -12 -551 552 0
551 -549 0
551 -550 0
551 -415 0
551 -417 0
551 -146 0
551 -151 0
551 -152 0
-213 -449 550 0
-457 -162 549 0
7 5 6 8 3 2 -373 -372 -547 548 0
547 -539 0
547 -546 0
-545 -527 -508 -544 -219 546 0
545 -461 0
545 -347 0
544 -543 0
544 -252 0
544 -253 0
544 -254 0
544 -255 0
-542 -541 -540 543 0
542 -230 0
542 -233 0
542 -290 0
542 -291 0
542 -66 0
542 -63 0
542 -57 0
542 -53 0
542 -43 0
542 -42 0
542 -37 0
541 -287 0
541 -288 0
541 -225 0
541 -228 0
541 -65 0
541 -62 0
541 -56 0
541 -50 0
541 -34 0
541 -33 0
541 -28 0
540 -284 0
540 -220 0
540 -285 0
540 -223 0
540 -64 0
540 -61 0
540 -55 0
540 -47 0
540 -25 0
540 -24 0
540 -19 0
-9 -10 -11 -12 -538 539 0
538 -536 0
538 -498 0
538 -518 0
538 -537 0
-194 -449 537 0
-102 -101 -100 -99 -535 536 0
535 -532 0
535 -533 0
535 -534 0
37 53 66 43 63 57 42 -138 -137 -80 -77 534 0
28 33 34 56 50 65 62 -75 -72 -135 -134 533 0
25 24 19 55 61 64 47 -70 -132 -67 -131 532 0
7 4 6 8 3 1 -373 -372 -530 531 0
530 -521 0
530 -529 0
-528 -527 -507 -526 -219 529 0
528 -442 0
528 -390 0
527 -394 0
527 -366 0
526 -525 0
526 -252 0
526 -253 0
526 -254 0
526 -255 0
-524 -523 -522 525 0
524 -231 0
524 -232 0
524 -248 0
524 -249 0
524 -57 0
524 -53 0
524 -43 0
524 -42 0
524 -41 0
524 -40 0
524 -37 0
523 -226 0
523 -227 0
523 -243 0
523 -244 0
523 -56 0
523 -50 0
523 -34 0
523 -33 0
523 -32 0
523 -31 0
523 -28 0
522 -221 0
522 -222 0
522 -238 0
522 -239 0
522 -55 0
522 -47 0
522 -25 0
522 -24 0
522 -23 0
522 -22 0
522 -19 0
-9 -10 -11 -12 -520 521 0
520 -517 0
520 -497 0
520 -518 0
520 -519 0
-378 -418 519 0
-213 -382 518 0
-102 -101 -100 -99 -516 517 0
516 -513 0
516 -514 0
516 -515 0
37 53 43 40 57 42 41 -96 -95 -79 -78 515 0
28 32 31 33 34 56 50 -91 -90 -74 -73 514 0
25 24 23 22 19 55 47 -86 -85 -69 -68 513 0
5 4 6 3 2 1 -373 -372 -511 512 0
511 -501 0
511 -510 0
-509 -508 -507 -506 -219 510 0
509 -315 0
509 -465 0
508 -437 0
508 -395 0
507 -362 0
507 -469 0
506 -505 0
506 -252 0
506 -253 0
506 -254 0
506 -255 0
-504 -503 -502 505 0
504 -263 0
504 -264 0
504 -273 0
504 -274 0
504 -43 0
504 -42 0
504 -41 0
504 -40 0
504 -39 0
504 -38 0
504 -37 0
503 -260 0
503 -261 0
503 -270 0
503 -271 0
503 -34 0
503 -33 0
503 -32 0
503 -31 0
503 -30 0
503 -29 0
503 -28 0
502 -267 0
502 -257 0
502 -258 0
502 -268 0
502 -25 0
502 -24 0
502 -23 0
502 -22 0
502 -21 0
502 -20 0
502 -19 0
-9 -10 -11 -12 -500 501 0
500 -496 0
500 -497 0
500 -498 0
500 -499 0
-453 -162 499 0
-383 -413 498 0
-457 -209 497 0
-102 -101 -100 -99 -495 496 0
495 -492 0
495 -493 0
495 -494 0
39 38 37 43 40 42 41 -121 -120 -111 -110 494 0
28 32 31 30 29 33 34 -118 -117 -108 -107 493 0
25 24 23 22 21 20 19 -115 -105 -104 -114 492 0
5 4 8 3 2 1 -373 -372 -490 491 0
490 -486 0
490 -489 0
-314 -313 -312 -311 -294 -488 -487 -219 489 0
488 -461 0
488 -395 0
487 -362 0
487 -442 0
-9 -10 -11 -12 -485 486 0
485 -483 0
485 -484 0
485 -141 0
485 -158 0
485 -159 0
485 -160 0
485 -161 0
-383 -449 484 0
-418 -209 483 0
7 4 6 8 3 2 -373 -372 -481 482 0
481 -477 0
481 -480 0
-351 -350 -349 -393 -392 -479 -478 -219 480 0
479 -461 0
479 -390 0
478 -362 0
478 -437 0
-9 -10 -11 -12 -476 477 0
476 -474 0
476 -475 0
476 -380 0
476 -381 0
476 -196 0
476 -197 0
476 -198 0
-378 -449 475 0
-413 -209 474 0
7 5 4 6 3 2 -373 -372 -472 473 0
472 -460 0
472 -471 0
-436 -435 -434 -433 -428 -470 -466 -219 471 0
470 -394 0
470 -469 0
-426 -425 -424 -468 -467 469 0
468 -432 0
468 -251 0
468 -252 0
468 -253 0
468 -254 0
468 -255 0
467 -462 0
467 -298 0
467 -252 0
467 -253 0
467 -254 0
467 -255 0
466 -461 0
466 -465 0
-431 -430 -429 -464 -463 465 0
464 -427 0
464 -342 0
464 -252 0
464 -253 0
464 -254 0
464 -255 0
463 -462 0
463 -326 0
463 -252 0
463 -253 0
463 -254 0
463 -255 0
-436 -435 -434 462 0
-282 -445 -444 -277 -256 461 0
-9 -10 -11 -12 -459 460 0
459 -454 0
459 -458 0
459 -404 0
459 -409 0
459 -410 0
459 -411 0
459 -412 0
-457 -382 458 0
457 -455 0
457 -456 0
457 -400 0
457 -401 0
457 -402 0
-102 -101 -100 -99 -98 -408 456 0
-102 -101 -100 -99 -145 -450 455 0
-453 -449 454 0
453 -451 0
453 -452 0
453 -405 0
453 -406 0
453 -407 0
-102 -101 -100 -99 -189 -403 452 0
-102 -101 -100 -99 -173 -450 451 0
450 -410 0
450 -411 0
450 -412 0
449 -103 0
449 -124 0
449 -420 0
449 -421 0
449 -129 0
7 5 4 8 3 2 -373 -372 -447 448 0
447 -423 0
447 -446 0
-282 -445 -444 -277 -256 -443 -438 -219 446 0
445 -440 0
445 -266 0
445 -252 0
445 -253 0
445 -254 0
445 -255 0
444 -306 0
444 -235 0
444 -252 0
444 -253 0
444 -254 0
444 -255 0
443 -394 0
443 -442 0
-305 -304 -299 -441 -439 442 0
441 -440 0
441 -303 0
441 -252 0
441 -253 0
441 -254 0
441 -255 0
-314 -313 -312 440 0
439 -283 0
439 -298 0
439 -252 0
439 -253 0
439 -254 0
439 -255 0
438 -315 0
438 -437 0
-436 -435 -434 -433 -428 437 0
436 -266 0
436 -252 0
436 -253 0
436 -254 0
436 -255 0
435 -281 0
435 -333 0
435 -252 0
435 -253 0
435 -254 0
435 -255 0
434 -235 0
434 -303 0
434 -252 0
434 -253 0
434 -254 0
434 -255 0
433 -432 0
433 -281 0
433 -252 0
433 -253 0
433 -254 0
433 -255 0
-431 -430 -429 432 0
431 -333 0
431 -252 0
431 -253 0
431 -254 0
431 -255 0
430 -266 0
430 -326 0
430 -252 0
430 -253 0
430 -254 0
430 -255 0
429 -303 0
429 -342 0
429 -252 0
429 -253 0
429 -254 0
429 -255 0
428 -427 0
428 -235 0
428 -252 0
428 -253 0
428 -254 0
428 -255 0
-426 -425 -424 427 0
426 -303 0
426 -252 0
426 -253 0
426 -254 0
426 -255 0
425 -251 0
425 -333 0
425 -252 0
425 -253 0
425 -254 0
425 -255 0
424 -266 0
424 -298 0
424 -252 0
424 -253 0
424 -254 0
424 -255 0
-9 -10 -11 -12 -422 423 0
422 -414 0
422 -419 0
422 -103 0
422 -124 0
422 -420 0
422 -421 0
422 -129 0
-102 -101 -100 -99 -113 -416 421 0
-102 -101 -100 -99 -82 -153 420 0
-418 -382 419 0
418 -415 0
418 -417 0
418 -146 0
418 -151 0
418 -152 0
-102 -101 -100 -99 -150 -416 417 0
416 -159 0
416 -160 0
416 -161 0
-102 -101 -100 -99 -145 -130 415 0
-413 -162 414 0
413 -404 0
413 -409 0
413 -410 0
413 -411 0
413 -412 0
-102 -101 -100 -99 -113 412 0
-102 -101 -100 -99 -180 -128 411 0
-102 -101 -100 -99 -150 -82 410 0
-102 -101 -100 -99 -128 -408 409 0
408 -405 0
408 -406 0
408 -407 0
-102 -101 -100 -99 -180 407 0
-102 -101 -100 -99 -173 -113 406 0
-102 -101 -100 -99 -189 -150 405 0
-102 -101 -100 -99 -82 -403 404 0
403 -400 0
403 -401 0
403 -402 0
-102 -101 -100 -99 -150 402 0
-102 -101 -100 -99 -180 -98 401 0
-102 -101 -100 -99 -145 -113 400 0
4 6 8 3 2 1 -373 -372 -398 399 0
398 -386 0
398 -397 0
-361 -360 -359 -358 -353 -396 -391 -219 397 0
396 -394 0
396 -395 0
-328 -327 -316 -369 -368 395 0
-351 -350 -349 -393 -392 394 0
393 -281 0
393 -357 0
393 -252 0
393 -253 0
393 -254 0
393 -255 0
392 -387 0
392 -266 0
392 -252 0
392 -253 0
392 -254 0
392 -255 0
391 -315 0
391 -390 0
-356 -355 -354 -389 -388 390 0
389 -352 0
389 -326 0
389 -252 0
389 -253 0
389 -254 0
389 -255 0
388 -387 0
388 -333 0
388 -252 0
388 -253 0
388 -254 0
388 -255 0
-361 -360 -359 387 0
-9 -10 -11 -12 -385 386 0
385 -379 0
385 -384 0
385 -200 0
385 -205 0
385 -206 0
385 -207 0
385 -208 0
-383 -382 384 0
383 -215 0
383 -216 0
383 -163 0
383 -174 0
383 -175 0
382 -380 0
382 -381 0
382 -196 0
382 -197 0
382 -198 0
-102 -101 -100 -99 -204 -128 381 0
-102 -101 -100 -99 -113 -375 380 0
-378 -162 379 0
378 -376 0
378 -377 0
378 -201 0
378 -202 0
378 -203 0
-102 -101 -100 -99 -173 -199 377 0
-102 -101 -100 -99 -180 -375 376 0
375 -206 0
375 -207 0
375 -208 0
5 6 8 3 2 1 -373 -372 -371 374 0
373 -7 0
373 -3 0
373 -2 0
373 -1 0
372 -8 0
372 -6 0
372 -5 0
372 -4 0
371 -218 0
371 -370 0
-328 -327 -316 -369 -368 -367 -348 -219 370 0
369 -276 0
369 -364 0
369 -252 0
369 -253 0
369 -254 0
369 -255 0
368 -310 0
368 -338 0
368 -252 0
368 -253 0
368 -254 0
368 -255 0
367 -362 0
367 -366 0
-337 -336 -335 -365 -363 366 0
365 -251 0
365 -364 0
365 -252 0
365 -253 0
365 -254 0
365 -255 0
-346 -345 -344 364 0
363 -329 0
363 -303 0
363 -252 0
363 -253 0
363 -254 0
363 -255 0
-361 -360 -359 -358 -353 362 0
361 -310 0
361 -252 0
361 -253 0
361 -254 0
361 -255 0
360 -235 0
360 -293 0
360 -252 0
360 -253 0
360 -254 0
360 -255 0
359 -276 0
359 -342 0
359 -252 0
359 -253 0
359 -254 0
359 -255 0
358 -357 0
358 -276 0
358 -252 0
358 -253 0
358 -254 0
358 -255 0
-356 -355 -354 357 0
356 -342 0
356 -252 0
356 -253 0
356 -254 0
356 -255 0
355 -310 0
355 -333 0
355 -252 0
355 -253 0
355 -254 0
355 -255 0
354 -235 0
354 -326 0
354 -252 0
354 -253 0
354 -254 0
354 -255 0
353 -352 0
353 -293 0
353 -252 0
353 -253 0
353 -254 0
353 -255 0
-351 -350 -349 352 0
351 -235 0
351 -252 0
351 -253 0
351 -254 0
351 -255 0
350 -266 0
350 -310 0
350 -252 0
350 -253 0
350 -254 0
350 -255 0
349 -281 0
349 -342 0
349 -252 0
349 -253 0
349 -254 0
349 -255 0
348 -315 0
348 -347 0
-346 -345 -344 -343 -334 347 0
346 -326 0
346 -252 0
346 -253 0
346 -254 0
346 -255 0
345 -293 0
345 -333 0
345 -252 0
345 -253 0
345 -254 0
345 -255 0
344 -298 0
344 -342 0
344 -252 0
344 -253 0
344 -254 0
344 -255 0
343 -338 0
343 -342 0
343 -252 0
343 -253 0
343 -254 0
343 -255 0
-341 -340 -339 342 0
341 -320 0
341 -321 0
341 -231 0
341 -232 0
341 -57 0
341 -54 0
341 -53 0
341 -52 0
341 -43 0
341 -41 0
341 -40 0
340 -317 0
340 -226 0
340 -227 0
340 -318 0
340 -56 0
340 -51 0
340 -50 0
340 -49 0
340 -34 0
340 -32 0
340 -31 0
339 -323 0
339 -221 0
339 -222 0
339 -324 0
339 -55 0
339 -48 0
339 -47 0
339 -46 0
339 -25 0
339 -23 0
339 -22 0
-337 -336 -335 338 0
337 -298 0
337 -252 0
337 -253 0
337 -254 0
337 -255 0
336 -251 0
336 -326 0
336 -252 0
336 -253 0
336 -254 0
336 -255 0
335 -303 0
335 -293 0
335 -252 0
335 -253 0
335 -254 0
335 -255 0
334 -329 0
334 -333 0
334 -252 0
334 -253 0
334 -254 0
334 -255 0
-332 -331 -330 333 0
332 -320 0
332 -321 0
332 -263 0
332 -264 0
332 -60 0
332 -57 0
332 -52 0
332 -42 0
332 -41 0
332 -40 0
332 -39 0
331 -317 0
331 -260 0
331 -261 0
331 -318 0
331 -59 0
331 -56 0
331 -49 0
331 -33 0
331 -32 0
331 -31 0
331 -30 0
330 -323 0
330 -257 0
330 -258 0
330 -324 0
330 -58 0
330 -55 0
330 -46 0
330 -24 0
330 -23 0
330 -22 0
330 -21 0
-328 -327 -316 329 0
328 -293 0
328 -252 0
328 -253 0
328 -254 0
328 -255 0
327 -276 0
327 -326 0
327 -252 0
327 -253 0
327 -254 0
327 -255 0
-325 -322 -319 326 0
325 -284 0
325 -323 0
325 -285 0
325 -324 0
325 -61 0
325 -55 0
325 -47 0
325 -46 0
325 -25 0
325 -24 0
325 -22 0
-10 -17 324 0
-13 10 323 0
322 -320 0
322 -321 0
322 -290 0
322 -291 0
322 -63 0
322 -57 0
322 -53 0
322 -52 0
322 -43 0
322 -42 0
322 -40 0
-10 -18 321 0
-15 10 320 0
319 -287 0
319 -288 0
319 -317 0
319 -318 0
319 -62 0
319 -56 0
319 -50 0
319 -49 0
319 -34 0
319 -33 0
319 -31 0
-10 -16 318 0
-14 10 317 0
316 -310 0
316 -298 0
316 -252 0
316 -253 0
316 -254 0
316 -255 0
-314 -313 -312 -311 -294 315 0
314 -276 0
314 -252 0
314 -253 0
314 -254 0
314 -255 0
313 -310 0
313 -251 0
313 -252 0
313 -253 0
313 -254 0
313 -255 0
312 -281 0
312 -293 0
312 -252 0
312 -253 0
312 -254 0
312 -255 0
311 -306 0
311 -310 0
311 -252 0
311 -253 0
311 -254 0
311 -255 0
-309 -308 -307 310 0
309 -231 0
309 -232 0
309 -273 0
309 -274 0
309 -53 0
309 -52 0
309 -43 0
309 -42 0
309 -41 0
309 -40 0
309 -38 0
308 -226 0
308 -227 0
308 -270 0
308 -271 0
308 -50 0
308 -49 0
308 -34 0
308 -33 0
308 -32 0
308 -31 0
308 -29 0
307 -267 0
307 -221 0
307 -222 0
307 -268 0
307 -47 0
307 -46 0
307 -25 0
307 -24 0
307 -23 0
307 -22 0
307 -20 0
-305 -304 -299 306 0
305 -251 0
305 -252 0
305 -253 0
305 -254 0
305 -255 0
304 -276 0
304 -303 0
304 -252 0
304 -253 0
304 -254 0
304 -255 0
-302 -301 -300 303 0
302 -263 0
302 -264 0
302 -248 0
302 -249 0
302 -57 0
302 -52 0
302 -43 0
302 -42 0
302 -41 0
302 -40 0
302 -39 0
301 -260 0
301 -261 0
301 -243 0
301 -244 0
301 -56 0
301 -49 0
301 -34 0
301 -33 0
301 -32 0
301 -31 0
301 -30 0
300 -257 0
300 -258 0
300 -238 0
300 -239 0
300 -55 0
300 -46 0
300 -25 0
300 -24 0
300 -23 0
300 -22 0
300 -21 0
299 -281 0
299 -298 0
299 -252 0
299 -253 0
299 -254 0
299 -255 0
-297 -296 -295 298 0
297 -248 0
297 -249 0
297 -290 0
297 -291 0
297 -63 0
297 -57 0
297 -54 0
297 -53 0
297 -52 0
297 -43 0
297 -40 0
296 -287 0
296 -288 0
296 -243 0
296 -244 0
296 -62 0
296 -56 0
296 -51 0
296 -50 0
296 -49 0
296 -34 0
296 -31 0
295 -284 0
295 -285 0
295 -238 0
295 -239 0
295 -61 0
295 -55 0
295 -48 0
295 -47 0
295 -46 0
295 -25 0
295 -22 0
294 -283 0
294 -293 0
294 -252 0
294 -253 0
294 -254 0
294 -255 0
-292 -289 -286 293 0
292 -290 0
292 -291 0
292 -273 0
292 -274 0
292 -63 0
292 -53 0
292 -52 0
292 -43 0
292 -42 0
292 -40 0
292 -38 0
-12 -45 291 0
12 -44 290 0
289 -287 0
289 -288 0
289 -270 0
289 -271 0
289 -62 0
289 -50 0
289 -49 0
289 -34 0
289 -33 0
289 -31 0
289 -29 0
-12 -36 288 0
-35 12 287 0
286 -284 0
286 -267 0
286 -285 0
286 -268 0
286 -61 0
286 -47 0
286 -46 0
286 -25 0
286 -24 0
286 -22 0
286 -20 0
-12 -27 285 0
-26 12 284 0
-282 -277 -256 283 0
282 -281 0
282 -252 0
282 -253 0
282 -254 0
282 -255 0
-280 -279 -278 281 0
280 -220 0
280 -236 0
280 -237 0
280 -223 0
280 -64 0
280 -55 0
280 -47 0
280 -46 0
280 -25 0
280 -24 0
280 -23 0
279 -230 0
279 -246 0
279 -247 0
279 -233 0
279 -66 0
279 -57 0
279 -53 0
279 -52 0
279 -43 0
279 -42 0
279 -41 0
278 -225 0
278 -241 0
278 -242 0
278 -228 0
278 -65 0
278 -56 0
278 -50 0
278 -49 0
278 -34 0
278 -33 0
278 -32 0
277 -266 0
277 -276 0
277 -252 0
277 -253 0
277 -254 0
277 -255 0
-275 -272 -269 276 0
275 -246 0
275 -247 0
275 -273 0
275 -274 0
275 -54 0
275 -53 0
275 -52 0
275 -43 0
275 -41 0
275 -40 0
275 -38 0
-9 -18 274 0
-15 9 273 0
272 -241 0
272 -242 0
272 -270 0
272 -271 0
272 -51 0
272 -50 0
272 -49 0
272 -34 0
272 -32 0
272 -31 0
272 -29 0
-14 9 271 0
-9 -16 270 0
269 -236 0
269 -237 0
269 -267 0
269 -268 0
269 -48 0
269 -47 0
269 -46 0
269 -25 0
269 -23 0
269 -22 0
269 -20 0
-9 -17 268 0
-13 9 267 0
-265 -262 -259 266 0
265 -230 0
265 -263 0
265 -264 0
265 -233 0
265 -66 0
265 -57 0
265 -52 0
265 -43 0
265 -42 0
265 -41 0
265 -39 0
-9 -45 264 0
9 -44 263 0
262 -225 0
262 -260 0
262 -261 0
262 -228 0
262 -65 0
262 -56 0
262 -49 0
262 -34 0
262 -33 0
262 -32 0
262 -30 0
-9 -36 261 0
-35 9 260 0
259 -220 0
259 -257 0
259 -258 0
259 -223 0
259 -64 0
259 -55 0
259 -46 0
259 -25 0
259 -24 0
259 -23 0
259 -21 0
-9 -27 258 0
-26 9 257 0
256 -235 0
256 -251 0
256 -252 0
256 -253 0
256 -254 0
256 -255 0
-14 13 255 0
-17 16 254 0
-15 14 253 0
-16 18 252 0
-250 -245 -240 251 0
250 -246 0
250 -247 0
250 -248 0
250 -249 0
250 -60 0
250 -57 0
250 -53 0
250 -52 0
250 -42 0
250 -41 0
250 -40 0
-11 -18 249 0
-15 11 248 0
-10 -45 247 0
10 -44 246 0
245 -241 0
245 -242 0
245 -243 0
245 -244 0
245 -59 0
245 -56 0
245 -50 0
245 -49 0
245 -33 0
245 -32 0
245 -31 0
-14 11 244 0
-11 -16 243 0
-10 -36 242 0
-35 10 241 0
240 -236 0
240 -237 0
240 -238 0
240 -239 0
240 -58 0
240 -55 0
240 -47 0
240 -46 0
240 -24 0
240 -23 0
240 -22 0
-11 -17 239 0
-13 11 238 0
-10 -27 237 0
-26 10 236 0
-234 -229 -224 235 0
234 -230 0
234 -231 0
234 -232 0
234 -233 0
234 -66 0
234 -60 0
234 -57 0
234 -53 0
234 -52 0
234 -42 0
234 -41 0
-15 12 233 0
-11 -45 232 0
11 -44 231 0
-12 -18 230 0
229 -225 0
229 -226 0
229 -227 0
229 -228 0
229 -65 0
229 -59 0
229 -56 0
229 -50 0
229 -49 0
229 -33 0
229 -32 0
-14 12 228 0
-11 -36 227 0
-35 11 226 0
-12 -16 225 0
224 -220 0
224 -221 0
224 -222 0
224 -223 0
224 -64 0
224 -58 0
224 -55 0
224 -47 0
224 -46 0
224 -24 0
224 -23 0
-13 12 223 0
-11 -27 222 0
-26 11 221 0
-12 -17 220 0
219 10 0
219 11 0
219 12 0
219 9 0
-9 -10 -11 -12 -217 218 0
217 -195 0
217 -214 0
217 -215 0
217 -216 0
217 -163 0
217 -174 0
217 -175 0
-102 -101 -100 -99 -211 -123 216 0
-102 -101 -100 -99 -185 -157 215 0
-213 -209 214 0
213 -210 0
213 -212 0
213 -182 0
213 -183 0
213 -184 0
-102 -101 -100 -99 -211 -98 212 0
211 -191 0
211 -192 0
211 -193 0
-102 -101 -100 -99 -150 -176 210 0
209 -200 0
209 -205 0
209 -206 0
209 -207 0
209 -208 0
-102 -101 -100 -99 -157 208 0
-102 -101 -100 -99 -140 -82 207 0
-102 -101 -100 -99 -189 -123 206 0
-102 -101 -100 -99 -123 -204 205 0
204 -201 0
204 -202 0
204 -203 0
-102 -101 -100 -99 -189 203 0
-102 -101 -100 -99 -180 -157 202 0
-102 -101 -100 -99 -173 -82 201 0
-102 -101 -100 -99 -140 -199 200 0
199 -196 0
199 -197 0
199 -198 0
-102 -101 -100 -99 -82 198 0
-102 -101 -100 -99 -157 -113 197 0
-102 -101 -100 -99 -189 -128 196 0
-194 -162 195 0
194 -181 0
194 -190 0
194 -191 0
194 -192 0
194 -193 0
-102 -101 -100 -99 -173 193 0
-102 -101 -100 -99 -180 -140 192 0
-102 -101 -100 -99 -189 -145 191 0
-102 -101 -100 -99 -189 -185 190 0
189 -186 0
189 -187 0
189 -188 0
54 53 52 43 40 57 41 -79 -78 -168 -167 188 0
32 31 34 56 50 51 49 -165 -74 -73 -164 187 0
25 23 22 55 48 46 47 -171 -69 -68 -170 186 0
185 -182 0
185 -183 0
185 -184 0
-102 -101 -100 -99 -145 184 0
-102 -101 -100 -99 -173 -98 183 0
-102 -101 -100 -99 -140 -150 182 0
-102 -101 -100 -99 -180 -176 181 0
180 -177 0
180 -178 0
180 -179 0
39 52 40 60 57 42 41 -111 -110 -168 -167 179 0
32 31 30 33 56 49 59 -165 -108 -107 -164 178 0
24 23 22 21 55 46 58 -171 -105 -104 -170 177 0
176 -163 0
176 -174 0
176 -175 0
-102 -101 -100 -99 -140 175 0
-102 -101 -100 -99 -173 -123 174 0
173 -166 0
173 -169 0
173 -172 0
25 24 22 55 61 46 47 -171 -132 -170 -131 172 0
171 10 0
171 17 0
170 13 0
170 -10 0
53 52 43 40 63 57 42 -138 -137 -168 -167 169 0
168 10 0
168 18 0
167 15 0
167 -10 0
31 33 34 56 50 49 62 -165 -164 -135 -134 166 0
165 10 0
165 16 0
164 14 0
164 -10 0
-102 -101 -100 -99 -145 -157 163 0
162 -141 0
162 -158 0
162 -159 0
162 -160 0
162 -161 0
-102 -101 -100 -99 -123 161 0
-102 -101 -100 -99 -98 -157 160 0
-102 -101 -100 -99 -140 -128 159 0
-102 -101 -100 -99 -157 -153 158 0
157 -154 0
157 -155 0
157 -156 0
38 53 52 43 40 42 41 -121 -120 -79 -78 156 0
32 31 29 33 34 50 49 -118 -117 -74 -73 155 0
25 24 23 22 20 46 47 -115 -69 -68 -114 154 0
153 -146 0
153 -151 0
153 -152 0
-102 -101 -100 -99 -98 152 0
-102 -101 -100 -99 -150 -123 151 0
150 -147 0
150 -148 0
150 -149 0
39 52 43 40 57 42 41 -96 -95 -111 -110 149 0
32 31 30 33 34 56 49 -91 -90 -108 -107 148 0
25 24 23 22 21 55 46 -86 -85 -105 -104 147 0
-102 -101 -100 -99 -145 -128 146 0
145 -142 0
145 -143 0
145 -144 0
54 53 52 43 40 63 57 -138 -137 -96 -95 144 0
31 34 56 50 51 49 62 -91 -90 -135 -134 143 0
25 22 55 61 48 46 47 -86 -85 -132 -131 142 0
-102 -101 -100 -99 -140 -130 141 0
140 -133 0
140 -136 0
140 -139 0
38 53 52 43 40 63 42 -121 -120 -138 -137 139 0
138 45 0
138 12 0
137 44 0
137 -12 0
31 29 33 34 50 49 62 -118 -117 -135 -134 136 0
135 36 0
135 12 0
134 35 0
134 -12 0
25 24 22 20 61 46 47 -115 -132 -114 -131 133 0
132 27 0
132 12 0
131 26 0
131 -12 0
130 -103 0
130 -124 0
130 -129 0
-102 -101 -100 -99 -128 129 0
128 -125 0
128 -126 0
128 -127 0
25 24 23 55 46 64 47 -70 -84 -83 -67 127 0
53 52 66 43 57 42 41 -80 -94 -93 -77 126 0
32 33 34 56 50 49 65 -75 -89 -88 -72 125 0
-102 -101 -100 -99 -123 -113 124 0
123 -116 0
123 -119 0
123 -122 0
38 54 53 52 43 40 41 -121 -120 -94 -93 122 0
121 15 0
121 -9 0
120 18 0
120 9 0
32 31 29 34 50 51 49 -118 -117 -89 -88 119 0
118 14 0
118 -9 0
117 16 0
117 9 0
25 23 22 20 48 46 47 -115 -114 -84 -83 116 0
115 17 0
115 9 0
114 13 0
114 -9 0
113 -106 0
113 -109 0
113 -112 0
39 52 66 43 57 42 41 -80 -111 -110 -77 112 0
111 45 0
111 9 0
110 44 0
110 -9 0
32 30 33 34 56 49 65 -75 -108 -107 -72 109 0
108 36 0
108 9 0
107 35 0
107 -9 0
25 24 23 21 55 46 64 -70 -105 -104 -67 106 0
105 27 0
105 9 0
104 26 0
104 -9 0
-102 -101 -100 -99 -98 -82 103 0
102 14 0
102 -13 0
101 17 0
101 -16 0
100 15 0
100 -14 0
99 16 0
99 -18 0
98 -87 0
98 -92 0
98 -97 0
53 52 40 60 57 42 41 -96 -95 -94 -93 97 0
96 11 0
96 18 0
95 15 0
95 -11 0
94 45 0
94 10 0
93 44 0
93 -10 0
32 31 33 56 50 49 59 -91 -90 -89 -88 92 0
91 14 0
91 -11 0
90 11 0
90 16 0
89 36 0
89 10 0
88 35 0
88 -10 0
24 23 22 55 46 58 47 -86 -85 -84 -83 87 0
86 11 0
86 17 0
85 13 0
85 -11 0
84 27 0
84 10 0
83 26 0
83 -10 0
82 -71 0
82 -76 0
82 -81 0
53 52 66 60 57 42 41 -80 -79 -78 -77 81 0
80 15 0
80 -12 0
79 45 0
79 11 0
78 44 0
78 -11 0
77 12 0
77 18 0
32 33 56 50 49 65 59 -75 -74 -73 -72 76 0
75 14 0
75 -12 0
74 36 0
74 11 0
73 35 0
73 -11 0
72 12 0
72 16 0
24 23 55 46 64 58 47 -70 -69 -68 -67 71 0
70 13 0
70 -12 0
69 27 0
69 11 0
68 26 0
68 -11 0
67 12 0
67 17 0
